Route #1: 4 27 52 8 46 34 67
Route #2: 33 73 1 43 41 42 64 22 62 2
Route #3: 30 74 28 61 21 47 48 5 29
Route #4: 45 36 69 71 60 70 20 37 15 57 13 54 19 35
Route #5: 11 65 66 59 14 53 7
Route #6: 26 12 58 72 39 9 40 17 51
Route #7: 38 10 31 25 55 18 50 32
Route #8: 44 3 24 49 56 23 63 16 6 68 75
Cost 768